[2026-03-23T15:59:54.239Z] Pipeline "set_exp_3_exp_3_n020_c004_g001" → 2026_03_23_15_59_54_set_exp_3_exp_3_n020_c004_g001_max.sol
Set parameter WLSAccessID
Set parameter WLSSecret
Set parameter LicenseID to value 2792458
Set parameter LogFile to value "gurobi.log"
Using license file /root/gurobi.lic
Academic license 2792458 - for non-commercial use only - registered to an___@studenti.unipg.it

Gurobi Optimizer version 13.0.1 build v13.0.1rc0 (linux64 - "Ubuntu 24.04.4 LTS")
Copyright (c) 2026, Gurobi Optimization, LLC

Warning: Duplicate section found (read 'binary') - Is a variable name equal to an LP file format keyword?
Warning: Duplicate section found (read 'binary') - Is a variable name equal to an LP file format keyword?
Warning: Duplicate section found (read 'binary') - Is a variable name equal to an LP file format keyword?
Warning: Duplicate section found (read 'binary') - Is a variable name equal to an LP file format keyword?
Warning: Duplicate section found (read 'binary') - Is a variable name equal to an LP file format keyword?
Warning: Duplicate section found (read 'binary') - Is a variable name equal to an LP file format keyword?
Warning: Duplicate section found (read 'binary') - Is a variable name equal to an LP file format keyword?
Warning: Duplicate section found (read 'binary') - Is a variable name equal to an LP file format keyword?
Warning: Duplicate section found (read 'binary') - Is a variable name equal to an LP file format keyword?
Warning: Duplicate section found (read 'binary') - Is a variable name equal to an LP file format keyword?
Warning: Further warnings of this type will be omitted.
Read LP format model from file /root/bgw/data/uploads/2026_03_23_15_59_54_set_exp_3_exp_3_n020_c004_g001_max.lp
Reading time = 0.01 seconds
: 2636 rows, 285 columns, 7920 nonzeros

Using Gurobi shared library /opt/gurobi1301/linux64/lib/libgurobi.so.13.0.1

CPU model: AMD EPYC-Genoa Processor, instruction set [SSE2|AVX|AVX2|AVX512]
Thread count: 16 physical cores, 16 logical processors, using up to 16 threads

Academic license 2792458 - for non-commercial use only - registered to an___@studenti.unipg.it
Optimize a model with 2636 rows, 285 columns and 7920 nonzeros (Max)
Model fingerprint: 0x8be9d290
Model has 4 linear objective coefficients
Variable types: 24 continuous, 261 integer (261 binary)
Coefficient statistics:
  Matrix range     [1e+00, 2e+01]
  Objective range  [1e+00, 1e+00]
  Bounds range     [1e+00, 1e+00]
  RHS range        [1e+00, 2e+01]

Found heuristic solution: objective 4.0000000
Presolve removed 322 rows and 73 columns
Presolve time: 0.02s
Presolved: 2314 rows, 212 columns, 7112 nonzeros
Variable types: 0 continuous, 212 integer (202 binary)
Found heuristic solution: objective 5.0000000

Root relaxation: objective 1.600000e+01, 237 iterations, 0.01 seconds (0.01 work units)

    Nodes    |    Current Node    |     Objective Bounds      |     Work
 Expl Unexpl |  Obj  Depth IntInf | Incumbent    BestBd   Gap | It/Node Time

     0     0   16.00000    0   26    5.00000   16.00000   220%     -    0s
H    0     0                       9.0000000   16.00000  77.8%     -    0s
H    0     0                      11.0000000   16.00000  45.5%     -    0s
     0     0   16.00000    0   29   11.00000   16.00000  45.5%     -    0s
H    0     0                      12.0000000   16.00000  33.3%     -    0s
     0     0   16.00000    0   29   12.00000   16.00000  33.3%     -    0s
     0     0   16.00000    0   27   12.00000   16.00000  33.3%     -    0s
     0     0   16.00000    0   27   12.00000   16.00000  33.3%     -    0s
     0     0   16.00000    0   33   12.00000   16.00000  33.3%     -    0s
     0     0   16.00000    0   39   12.00000   16.00000  33.3%     -    0s
     0     0   16.00000    0   26   12.00000   16.00000  33.3%     -    0s
     0     0   16.00000    0   27   12.00000   16.00000  33.3%     -    0s
     0     0   16.00000    0   26   12.00000   16.00000  33.3%     -    0s
     0     0   16.00000    0   32   12.00000   16.00000  33.3%     -    0s
     0     0   16.00000    0   31   12.00000   16.00000  33.3%     -    0s
     0     0   16.00000    0   26   12.00000   16.00000  33.3%     -    0s
     0     0   15.00000    0   28   12.00000   15.00000  25.0%     -    0s
     0     0   15.00000    0   27   12.00000   15.00000  25.0%     -    0s
     0     0   15.00000    0   27   12.00000   15.00000  25.0%     -    0s
     0     0   15.00000    0   27   12.00000   15.00000  25.0%     -    0s
     0     2   15.00000    0   27   12.00000   15.00000  25.0%     -    0s

Cutting planes:
  Cover: 3
  MIR: 1
  Inf proof: 6
  Zero half: 4

Explored 592 nodes (34775 simplex iterations) in 0.50 seconds (0.52 work units)
Thread count was 16 (of 16 available processors)

Solution count 5: 12 11 9 ... 4

Optimal solution found (tolerance 1.00e-04)
Best objective 1.200000000000e+01, best bound 1.200000000000e+01, gap 0.0000%

Wrote result file '/root/bgw/data/results/2026_03_23_15_59_54_set_exp_3_exp_3_n020_c004_g001_max.sol'

